<?xml version="1.0" encoding="UTF-8"?><osil xmlns="os.optimizationservices.org"   xmlns:xsi="http://www.w3.org/2001/XMLSchema-instance" xsi:schemaLocation="os.optimizationservices.org http://www.optimizationservices.org/schemas/2.0/OSiL.xsd" ><instanceHeader><name>q_20_4_75_2</name></instanceHeader><instanceData><variables numberOfVariables="20"><var name="x1" ub="1"/><var name="x2" ub="1"/><var name="x3" ub="1"/><var name="x4" ub="1"/><var name="x5" ub="1"/><var name="x6" ub="1"/><var name="x7" ub="1"/><var name="x8" ub="1"/><var name="x9" ub="1"/><var name="x10" ub="1"/><var name="x11" ub="1"/><var name="x12" ub="1"/><var name="x13" ub="1"/><var name="x14" ub="1"/><var name="x15" ub="1"/><var name="x16" ub="1"/><var name="x17" ub="1"/><var name="x18" ub="1"/><var name="x19" ub="1"/><var name="x20" ub="1"/></variables><objectives numberOfObjectives="1"><obj maxOrMin="min" name="defObj_x21" numberOfObjCoef="20"><coef idx="0">-.1965</coef><coef idx="1">.5678</coef><coef idx="2">.8256</coef><coef idx="3">-2.88e-2</coef><coef idx="4">-4.73e-2</coef><coef idx="5">.1173</coef><coef idx="6">.6063</coef><coef idx="7">-.8786</coef><coef idx="8">.8495</coef><coef idx="9">.1714</coef><coef idx="10">.4934</coef><coef idx="11">-.7093</coef><coef idx="12">-.5405</coef><coef idx="13">.7902</coef><coef idx="14">-.333</coef><coef idx="15">.9342</coef><coef idx="16">.6046</coef><coef idx="17">-.7882</coef><coef idx="18">.4245</coef><coef idx="19">-.3577</coef></obj></objectives><constraints numberOfConstraints="4"><con name="e2" ub="10.92"/><con name="e3" ub="51.323"/><con name="e4" ub="20.533"/><con name="e5" ub="37.581"/></constraints><linearConstraintCoefficients numberOfValues="80"><start><el mult="5" incr="20">0</el></start><colIdx><el mult="20" incr="1">0</el><el mult="20" incr="1">0</el><el mult="20" incr="1">0</el><el mult="20" incr="1">0</el></colIdx><value><el>.4719</el><el>.1079</el><el>-.1952</el><el>.9831</el><el>-.3912</el><el>-1.64e-2</el><el>-.7641</el><el>.825</el><el>.7573</el><el>-7.31e-2</el><el>-.7839</el><el>.2375</el><el>.342</el><el>-.2362</el><el>.7813</el><el>.6021</el><el>.3864</el><el>.7828</el><el>-.2355</el><el>.1796</el><el>-.6817</el><el>-.9275</el><el>.5669</el><el>-.8213</el><el>.3068</el><el>.9216</el><el>.8245</el><el>-.387</el><el>.2332</el><el>-.2114</el><el>-.5222</el><el>-.1285</el><el>.2733</el><el>-.5025</el><el>-.3684</el><el>-.1281</el><el>.7043</el><el>.4752</el><el>.4398</el><el>-.2425</el><el>-.723</el><el>.7367</el><el>-.5166</el><el>-.6852</el><el>.5099</el><el>-.1606</el><el>-.8887</el><el>.499</el><el>.6686</el><el>.4415</el><el>-.2126</el><el>-.8338</el><el>-.8861</el><el>-.9484</el><el>-.2048</el><el>-.1835</el><el>-.2758</el><el>-.5844</el><el>.3621</el><el>.6829</el><el>.9858</el><el>.8136</el><el>.6273</el><el>.3116</el><el>.5186</el><el>.4613</el><el>.5744</el><el>-.5661</el><el>-.7528</el><el>-.1247</el><el>-.5048</el><el>.1487</el><el>.6904</el><el>-.4091</el><el>.8667</el><el>.4524</el><el>-.4188</el><el>-.3955</el><el>.3814</el><el>-.4766</el></value></linearConstraintCoefficients><quadraticCoefficients  numberOfQuadraticTerms="550" ><qTerm  idx="-1"  idxOne="0"  idxTwo="0"  coef=".5042"/><qTerm  idx="-1"  idxOne="0"  idxTwo="1"  coef="-.931"/><qTerm  idx="-1"  idxOne="0"  idxTwo="2"  coef=".6521"/><qTerm  idx="-1"  idxOne="0"  idxTwo="4"  coef="-.3237"/><qTerm  idx="-1"  idxOne="0"  idxTwo="5"  coef=".27"/><qTerm  idx="-1"  idxOne="0"  idxTwo="6"  coef=".2362"/><qTerm  idx="-1"  idxOne="0"  idxTwo="9"  coef=".5923"/><qTerm  idx="-1"  idxOne="0"  idxTwo="10"  coef=".986"/><qTerm  idx="-1"  idxOne="0"  idxTwo="11"  coef="-6.44e-2"/><qTerm  idx="-1"  idxOne="0"  idxTwo="12"  coef=".6635"/><qTerm  idx="-1"  idxOne="0"  idxTwo="13"  coef="-.7397"/><qTerm  idx="-1"  idxOne="0"  idxTwo="14"  coef=".942"/><qTerm  idx="-1"  idxOne="0"  idxTwo="15"  coef="-.6956"/><qTerm  idx="-1"  idxOne="0"  idxTwo="16"  coef=".7189"/><qTerm  idx="-1"  idxOne="0"  idxTwo="17"  coef=".2027"/><qTerm  idx="-1"  idxOne="0"  idxTwo="18"  coef=".7485"/><qTerm  idx="-1"  idxOne="0"  idxTwo="19"  coef=".4619"/><qTerm  idx="-1"  idxOne="1"  idxTwo="2"  coef="4.3e-3"/><qTerm  idx="-1"  idxOne="1"  idxTwo="4"  coef=".8381"/><qTerm  idx="-1"  idxOne="1"  idxTwo="7"  coef="-.8394"/><qTerm  idx="-1"  idxOne="1"  idxTwo="8"  coef="-.7701"/><qTerm  idx="-1"  idxOne="1"  idxTwo="10"  coef="-.3017"/><qTerm  idx="-1"  idxOne="1"  idxTwo="11"  coef="-.2722"/><qTerm  idx="-1"  idxOne="1"  idxTwo="15"  coef=".4795"/><qTerm  idx="-1"  idxOne="1"  idxTwo="17"  coef=".3531"/><qTerm  idx="-1"  idxOne="2"  idxTwo="2"  coef=".2825"/><qTerm  idx="-1"  idxOne="2"  idxTwo="3"  coef=".3274"/><qTerm  idx="-1"  idxOne="2"  idxTwo="8"  coef="-.4461"/><qTerm  idx="-1"  idxOne="2"  idxTwo="10"  coef=".2588"/><qTerm  idx="-1"  idxOne="2"  idxTwo="12"  coef=".5324"/><qTerm  idx="-1"  idxOne="2"  idxTwo="14"  coef="-.6424"/><qTerm  idx="-1"  idxOne="2"  idxTwo="15"  coef="-.573"/><qTerm  idx="-1"  idxOne="2"  idxTwo="17"  coef=".6427"/><qTerm  idx="-1"  idxOne="2"  idxTwo="19"  coef=".1464"/><qTerm  idx="-1"  idxOne="3"  idxTwo="4"  coef=".7913"/><qTerm  idx="-1"  idxOne="3"  idxTwo="5"  coef="1.91e-2"/><qTerm  idx="-1"  idxOne="3"  idxTwo="6"  coef=".6857"/><qTerm  idx="-1"  idxOne="3"  idxTwo="8"  coef=".3674"/><qTerm  idx="-1"  idxOne="3"  idxTwo="9"  coef="-.7488"/><qTerm  idx="-1"  idxOne="3"  idxTwo="10"  coef="-.9634"/><qTerm  idx="-1"  idxOne="3"  idxTwo="12"  coef="-.2154"/><qTerm  idx="-1"  idxOne="3"  idxTwo="14"  coef=".9814"/><qTerm  idx="-1"  idxOne="3"  idxTwo="15"  coef=".3058"/><qTerm  idx="-1"  idxOne="4"  idxTwo="12"  coef="-.5648"/><qTerm  idx="-1"  idxOne="4"  idxTwo="13"  coef="4.3e-2"/><qTerm  idx="-1"  idxOne="4"  idxTwo="15"  coef=".3748"/><qTerm  idx="-1"  idxOne="4"  idxTwo="16"  coef="-.1711"/><qTerm  idx="-1"  idxOne="4"  idxTwo="17"  coef=".1803"/><qTerm  idx="-1"  idxOne="4"  idxTwo="18"  coef="-.3642"/><qTerm  idx="-1"  idxOne="4"  idxTwo="19"  coef=".4124"/><qTerm  idx="-1"  idxOne="5"  idxTwo="5"  coef=".2058"/><qTerm  idx="-1"  idxOne="5"  idxTwo="6"  coef=".2026"/><qTerm  idx="-1"  idxOne="5"  idxTwo="7"  coef=".3626"/><qTerm  idx="-1"  idxOne="5"  idxTwo="11"  coef=".5458"/><qTerm  idx="-1"  idxOne="5"  idxTwo="16"  coef="-2.22e-2"/><qTerm  idx="-1"  idxOne="5"  idxTwo="17"  coef="-.7975"/><qTerm  idx="-1"  idxOne="5"  idxTwo="18"  coef="-.5112"/><qTerm  idx="-1"  idxOne="5"  idxTwo="19"  coef="6.13e-2"/><qTerm  idx="-1"  idxOne="6"  idxTwo="8"  coef=".769"/><qTerm  idx="-1"  idxOne="6"  idxTwo="15"  coef=".701"/><qTerm  idx="-1"  idxOne="6"  idxTwo="16"  coef="-.7641"/><qTerm  idx="-1"  idxOne="6"  idxTwo="17"  coef=".3574"/><qTerm  idx="-1"  idxOne="7"  idxTwo="7"  coef="-4.37e-2"/><qTerm  idx="-1"  idxOne="7"  idxTwo="9"  coef=".7193"/><qTerm  idx="-1"  idxOne="7"  idxTwo="10"  coef=".4535"/><qTerm  idx="-1"  idxOne="7"  idxTwo="11"  coef=".5978"/><qTerm  idx="-1"  idxOne="7"  idxTwo="12"  coef="1.33e-2"/><qTerm  idx="-1"  idxOne="7"  idxTwo="16"  coef=".8512"/><qTerm  idx="-1"  idxOne="7"  idxTwo="17"  coef="-.6772"/><qTerm  idx="-1"  idxOne="8"  idxTwo="8"  coef=".5878"/><qTerm  idx="-1"  idxOne="8"  idxTwo="10"  coef="-.3585"/><qTerm  idx="-1"  idxOne="8"  idxTwo="12"  coef=".1872"/><qTerm  idx="-1"  idxOne="8"  idxTwo="14"  coef="5.89e-2"/><qTerm  idx="-1"  idxOne="8"  idxTwo="15"  coef="-.3317"/><qTerm  idx="-1"  idxOne="8"  idxTwo="19"  coef=".7479"/><qTerm  idx="-1"  idxOne="9"  idxTwo="9"  coef="-.9671"/><qTerm  idx="-1"  idxOne="9"  idxTwo="10"  coef=".9391"/><qTerm  idx="-1"  idxOne="9"  idxTwo="11"  coef=".9018"/><qTerm  idx="-1"  idxOne="9"  idxTwo="15"  coef=".32"/><qTerm  idx="-1"  idxOne="9"  idxTwo="17"  coef=".6027"/><qTerm  idx="-1"  idxOne="9"  idxTwo="18"  coef="-.6141"/><qTerm  idx="-1"  idxOne="9"  idxTwo="19"  coef=".531"/><qTerm  idx="-1"  idxOne="10"  idxTwo="11"  coef=".2639"/><qTerm  idx="-1"  idxOne="10"  idxTwo="12"  coef=".3663"/><qTerm  idx="-1"  idxOne="10"  idxTwo="14"  coef="-.233"/><qTerm  idx="-1"  idxOne="10"  idxTwo="15"  coef=".4189"/><qTerm  idx="-1"  idxOne="10"  idxTwo="16"  coef=".4041"/><qTerm  idx="-1"  idxOne="10"  idxTwo="17"  coef=".304"/><qTerm  idx="-1"  idxOne="10"  idxTwo="18"  coef=".3126"/><qTerm  idx="-1"  idxOne="10"  idxTwo="19"  coef="4.81e-2"/><qTerm  idx="-1"  idxOne="11"  idxTwo="15"  coef="-.5275"/><qTerm  idx="-1"  idxOne="11"  idxTwo="17"  coef="-.1305"/><qTerm  idx="-1"  idxOne="12"  idxTwo="14"  coef="-.6678"/><qTerm  idx="-1"  idxOne="13"  idxTwo="13"  coef="-.5155"/><qTerm  idx="-1"  idxOne="13"  idxTwo="14"  coef=".5784"/><qTerm  idx="-1"  idxOne="13"  idxTwo="15"  coef="1.6e-3"/><qTerm  idx="-1"  idxOne="13"  idxTwo="19"  coef="-.1111"/><qTerm  idx="-1"  idxOne="14"  idxTwo="14"  coef="-.3946"/><qTerm  idx="-1"  idxOne="14"  idxTwo="17"  coef="-.98"/><qTerm  idx="-1"  idxOne="14"  idxTwo="19"  coef="-.1806"/><qTerm  idx="-1"  idxOne="15"  idxTwo="15"  coef=".988"/><qTerm  idx="-1"  idxOne="15"  idxTwo="16"  coef="-.6747"/><qTerm  idx="-1"  idxOne="15"  idxTwo="17"  coef="-.3078"/><qTerm  idx="-1"  idxOne="15"  idxTwo="18"  coef=".2953"/><qTerm  idx="-1"  idxOne="15"  idxTwo="19"  coef="-.8559"/><qTerm  idx="-1"  idxOne="16"  idxTwo="16"  coef=".3771"/><qTerm  idx="-1"  idxOne="16"  idxTwo="19"  coef="-.6117"/><qTerm  idx="-1"  idxOne="18"  idxTwo="18"  coef=".1766"/><qTerm  idx="-1"  idxOne="18"  idxTwo="19"  coef=".472"/><qTerm  idx="-1"  idxOne="19"  idxTwo="19"  coef="-.1445"/><qTerm  idx="0"  idxOne="0"  idxTwo="0"  coef=".8792"/><qTerm  idx="0"  idxOne="0"  idxTwo="1"  coef="-.8687"/><qTerm  idx="0"  idxOne="0"  idxTwo="2"  coef=".3423"/><qTerm  idx="0"  idxOne="0"  idxTwo="3"  coef="-.9285"/><qTerm  idx="0"  idxOne="0"  idxTwo="4"  coef="-.8432"/><qTerm  idx="0"  idxOne="0"  idxTwo="6"  coef="-.5799"/><qTerm  idx="0"  idxOne="0"  idxTwo="7"  coef="-.6942"/><qTerm  idx="0"  idxOne="0"  idxTwo="10"  coef="-.4111"/><qTerm  idx="0"  idxOne="0"  idxTwo="11"  coef=".386"/><qTerm  idx="0"  idxOne="0"  idxTwo="12"  coef=".1187"/><qTerm  idx="0"  idxOne="0"  idxTwo="13"  coef=".12"/><qTerm  idx="0"  idxOne="0"  idxTwo="15"  coef=".3772"/><qTerm  idx="0"  idxOne="0"  idxTwo="19"  coef="-.7117"/><qTerm  idx="0"  idxOne="1"  idxTwo="1"  coef="-.5063"/><qTerm  idx="0"  idxOne="1"  idxTwo="2"  coef="-.5562"/><qTerm  idx="0"  idxOne="1"  idxTwo="4"  coef=".5658"/><qTerm  idx="0"  idxOne="1"  idxTwo="5"  coef="-.9644"/><qTerm  idx="0"  idxOne="1"  idxTwo="7"  coef=".9425"/><qTerm  idx="0"  idxOne="1"  idxTwo="10"  coef="-.7938"/><qTerm  idx="0"  idxOne="1"  idxTwo="11"  coef="8.56e-2"/><qTerm  idx="0"  idxOne="1"  idxTwo="14"  coef=".9841"/><qTerm  idx="0"  idxOne="2"  idxTwo="4"  coef="-.5537"/><qTerm  idx="0"  idxOne="2"  idxTwo="10"  coef="-.6452"/><qTerm  idx="0"  idxOne="2"  idxTwo="15"  coef="-.6664"/><qTerm  idx="0"  idxOne="2"  idxTwo="16"  coef="-.5412"/><qTerm  idx="0"  idxOne="2"  idxTwo="17"  coef=".6908"/><qTerm  idx="0"  idxOne="2"  idxTwo="19"  coef="-.5576"/><qTerm  idx="0"  idxOne="3"  idxTwo="3"  coef=".1221"/><qTerm  idx="0"  idxOne="3"  idxTwo="6"  coef="-.925"/><qTerm  idx="0"  idxOne="3"  idxTwo="7"  coef=".4836"/><qTerm  idx="0"  idxOne="3"  idxTwo="11"  coef="-.4814"/><qTerm  idx="0"  idxOne="3"  idxTwo="14"  coef="-.8928"/><qTerm  idx="0"  idxOne="3"  idxTwo="16"  coef=".8237"/><qTerm  idx="0"  idxOne="3"  idxTwo="19"  coef=".2967"/><qTerm  idx="0"  idxOne="4"  idxTwo="5"  coef=".519"/><qTerm  idx="0"  idxOne="4"  idxTwo="6"  coef="-.4036"/><qTerm  idx="0"  idxOne="4"  idxTwo="7"  coef=".2184"/><qTerm  idx="0"  idxOne="4"  idxTwo="9"  coef=".5597"/><qTerm  idx="0"  idxOne="4"  idxTwo="11"  coef="-.6636"/><qTerm  idx="0"  idxOne="4"  idxTwo="12"  coef="-.2396"/><qTerm  idx="0"  idxOne="4"  idxTwo="16"  coef=".2761"/><qTerm  idx="0"  idxOne="4"  idxTwo="18"  coef="-.8421"/><qTerm  idx="0"  idxOne="4"  idxTwo="19"  coef=".5215"/><qTerm  idx="0"  idxOne="5"  idxTwo="7"  coef="-.3457"/><qTerm  idx="0"  idxOne="5"  idxTwo="9"  coef=".54"/><qTerm  idx="0"  idxOne="5"  idxTwo="10"  coef=".1788"/><qTerm  idx="0"  idxOne="5"  idxTwo="11"  coef=".2414"/><qTerm  idx="0"  idxOne="5"  idxTwo="13"  coef="-5.5e-2"/><qTerm  idx="0"  idxOne="5"  idxTwo="14"  coef="-.2767"/><qTerm  idx="0"  idxOne="5"  idxTwo="15"  coef=".3488"/><qTerm  idx="0"  idxOne="5"  idxTwo="18"  coef="9.79e-2"/><qTerm  idx="0"  idxOne="6"  idxTwo="8"  coef="-.6934"/><qTerm  idx="0"  idxOne="6"  idxTwo="11"  coef="-.6615"/><qTerm  idx="0"  idxOne="6"  idxTwo="13"  coef=".503"/><qTerm  idx="0"  idxOne="6"  idxTwo="14"  coef="-.7626"/><qTerm  idx="0"  idxOne="6"  idxTwo="16"  coef="-.7943"/><qTerm  idx="0"  idxOne="6"  idxTwo="19"  coef="-.3063"/><qTerm  idx="0"  idxOne="7"  idxTwo="7"  coef="5.58e-2"/><qTerm  idx="0"  idxOne="7"  idxTwo="9"  coef="-.2301"/><qTerm  idx="0"  idxOne="7"  idxTwo="14"  coef=".5779"/><qTerm  idx="0"  idxOne="7"  idxTwo="15"  coef="-5.23e-2"/><qTerm  idx="0"  idxOne="7"  idxTwo="16"  coef=".4117"/><qTerm  idx="0"  idxOne="7"  idxTwo="18"  coef=".7896"/><qTerm  idx="0"  idxOne="8"  idxTwo="10"  coef="-.3012"/><qTerm  idx="0"  idxOne="8"  idxTwo="11"  coef="-1.66e-2"/><qTerm  idx="0"  idxOne="8"  idxTwo="12"  coef="-.6013"/><qTerm  idx="0"  idxOne="8"  idxTwo="14"  coef="-.27"/><qTerm  idx="0"  idxOne="8"  idxTwo="17"  coef="-.5193"/><qTerm  idx="0"  idxOne="8"  idxTwo="18"  coef="9.48e-2"/><qTerm  idx="0"  idxOne="8"  idxTwo="19"  coef=".2315"/><qTerm  idx="0"  idxOne="9"  idxTwo="11"  coef="-.8466"/><qTerm  idx="0"  idxOne="9"  idxTwo="12"  coef="-.4082"/><qTerm  idx="0"  idxOne="9"  idxTwo="16"  coef=".7234"/><qTerm  idx="0"  idxOne="9"  idxTwo="17"  coef="-.2451"/><qTerm  idx="0"  idxOne="9"  idxTwo="18"  coef=".486"/><qTerm  idx="0"  idxOne="9"  idxTwo="19"  coef="-.9333"/><qTerm  idx="0"  idxOne="10"  idxTwo="10"  coef="-.577"/><qTerm  idx="0"  idxOne="10"  idxTwo="12"  coef=".6391"/><qTerm  idx="0"  idxOne="10"  idxTwo="13"  coef="-7.8e-2"/><qTerm  idx="0"  idxOne="10"  idxTwo="15"  coef="-.7901"/><qTerm  idx="0"  idxOne="10"  idxTwo="16"  coef=".3108"/><qTerm  idx="0"  idxOne="10"  idxTwo="18"  coef="-.5911"/><qTerm  idx="0"  idxOne="10"  idxTwo="19"  coef="-.7161"/><qTerm  idx="0"  idxOne="11"  idxTwo="11"  coef=".6677"/><qTerm  idx="0"  idxOne="11"  idxTwo="12"  coef=".9834"/><qTerm  idx="0"  idxOne="11"  idxTwo="14"  coef="-.2604"/><qTerm  idx="0"  idxOne="11"  idxTwo="15"  coef=".1312"/><qTerm  idx="0"  idxOne="11"  idxTwo="17"  coef=".1699"/><qTerm  idx="0"  idxOne="11"  idxTwo="18"  coef=".8036"/><qTerm  idx="0"  idxOne="11"  idxTwo="19"  coef=".4179"/><qTerm  idx="0"  idxOne="12"  idxTwo="14"  coef="-.4876"/><qTerm  idx="0"  idxOne="12"  idxTwo="15"  coef="-.9695"/><qTerm  idx="0"  idxOne="12"  idxTwo="16"  coef=".8412"/><qTerm  idx="0"  idxOne="12"  idxTwo="17"  coef="-.6245"/><qTerm  idx="0"  idxOne="12"  idxTwo="18"  coef="-.2725"/><qTerm  idx="0"  idxOne="12"  idxTwo="19"  coef=".9959"/><qTerm  idx="0"  idxOne="13"  idxTwo="14"  coef=".7839"/><qTerm  idx="0"  idxOne="13"  idxTwo="17"  coef="-.2566"/><qTerm  idx="0"  idxOne="13"  idxTwo="19"  coef="-.3715"/><qTerm  idx="0"  idxOne="14"  idxTwo="15"  coef="-.1659"/><qTerm  idx="0"  idxOne="14"  idxTwo="19"  coef="-.3605"/><qTerm  idx="0"  idxOne="15"  idxTwo="15"  coef=".4571"/><qTerm  idx="0"  idxOne="15"  idxTwo="16"  coef=".157"/><qTerm  idx="0"  idxOne="15"  idxTwo="18"  coef=".3664"/><qTerm  idx="0"  idxOne="15"  idxTwo="19"  coef=".2114"/><qTerm  idx="0"  idxOne="16"  idxTwo="18"  coef="-.8717"/><qTerm  idx="0"  idxOne="17"  idxTwo="17"  coef=".7656"/><qTerm  idx="0"  idxOne="17"  idxTwo="19"  coef="-.1614"/><qTerm  idx="0"  idxOne="18"  idxTwo="18"  coef=".208"/><qTerm  idx="0"  idxOne="18"  idxTwo="19"  coef=".2939"/><qTerm  idx="1"  idxOne="0"  idxTwo="0"  coef=".9751"/><qTerm  idx="1"  idxOne="0"  idxTwo="1"  coef=".4229"/><qTerm  idx="1"  idxOne="0"  idxTwo="2"  coef="-6.38e-2"/><qTerm  idx="1"  idxOne="0"  idxTwo="3"  coef=".9879"/><qTerm  idx="1"  idxOne="0"  idxTwo="4"  coef=".8635"/><qTerm  idx="1"  idxOne="0"  idxTwo="7"  coef=".4333"/><qTerm  idx="1"  idxOne="0"  idxTwo="8"  coef=".8267"/><qTerm  idx="1"  idxOne="0"  idxTwo="10"  coef=".3304"/><qTerm  idx="1"  idxOne="0"  idxTwo="11"  coef=".7375"/><qTerm  idx="1"  idxOne="0"  idxTwo="12"  coef=".1234"/><qTerm  idx="1"  idxOne="0"  idxTwo="13"  coef="-.2028"/><qTerm  idx="1"  idxOne="0"  idxTwo="14"  coef=".4864"/><qTerm  idx="1"  idxOne="0"  idxTwo="17"  coef=".4254"/><qTerm  idx="1"  idxOne="0"  idxTwo="18"  coef="-.7986"/><qTerm  idx="1"  idxOne="0"  idxTwo="19"  coef="-.3318"/><qTerm  idx="1"  idxOne="1"  idxTwo="1"  coef=".7505"/><qTerm  idx="1"  idxOne="1"  idxTwo="2"  coef=".8088"/><qTerm  idx="1"  idxOne="1"  idxTwo="3"  coef="-.4503"/><qTerm  idx="1"  idxOne="1"  idxTwo="4"  coef=".8307"/><qTerm  idx="1"  idxOne="1"  idxTwo="7"  coef="-.9624"/><qTerm  idx="1"  idxOne="1"  idxTwo="8"  coef="-.172"/><qTerm  idx="1"  idxOne="1"  idxTwo="11"  coef=".2328"/><qTerm  idx="1"  idxOne="1"  idxTwo="12"  coef="-4.83e-2"/><qTerm  idx="1"  idxOne="1"  idxTwo="14"  coef="-.8543"/><qTerm  idx="1"  idxOne="1"  idxTwo="15"  coef="-.1414"/><qTerm  idx="1"  idxOne="1"  idxTwo="16"  coef="-.6745"/><qTerm  idx="1"  idxOne="1"  idxTwo="17"  coef=".2956"/><qTerm  idx="1"  idxOne="1"  idxTwo="18"  coef="-.9646"/><qTerm  idx="1"  idxOne="1"  idxTwo="19"  coef=".6631"/><qTerm  idx="1"  idxOne="2"  idxTwo="3"  coef="-.921"/><qTerm  idx="1"  idxOne="2"  idxTwo="5"  coef=".7216"/><qTerm  idx="1"  idxOne="2"  idxTwo="9"  coef="-9.16e-2"/><qTerm  idx="1"  idxOne="2"  idxTwo="12"  coef=".5066"/><qTerm  idx="1"  idxOne="2"  idxTwo="14"  coef="-.2279"/><qTerm  idx="1"  idxOne="2"  idxTwo="16"  coef=".4388"/><qTerm  idx="1"  idxOne="2"  idxTwo="18"  coef=".1251"/><qTerm  idx="1"  idxOne="2"  idxTwo="19"  coef="-.4666"/><qTerm  idx="1"  idxOne="3"  idxTwo="3"  coef="-.6096"/><qTerm  idx="1"  idxOne="3"  idxTwo="4"  coef="-.1296"/><qTerm  idx="1"  idxOne="3"  idxTwo="5"  coef=".147"/><qTerm  idx="1"  idxOne="3"  idxTwo="17"  coef="-.8773"/><qTerm  idx="1"  idxOne="4"  idxTwo="4"  coef=".3256"/><qTerm  idx="1"  idxOne="4"  idxTwo="5"  coef=".1917"/><qTerm  idx="1"  idxOne="4"  idxTwo="6"  coef="-.7454"/><qTerm  idx="1"  idxOne="4"  idxTwo="9"  coef=".953"/><qTerm  idx="1"  idxOne="4"  idxTwo="19"  coef="-.2524"/><qTerm  idx="1"  idxOne="5"  idxTwo="5"  coef=".6998"/><qTerm  idx="1"  idxOne="5"  idxTwo="6"  coef=".9019"/><qTerm  idx="1"  idxOne="5"  idxTwo="9"  coef="8.86e-2"/><qTerm  idx="1"  idxOne="5"  idxTwo="11"  coef="-.745"/><qTerm  idx="1"  idxOne="5"  idxTwo="14"  coef=".7499"/><qTerm  idx="1"  idxOne="5"  idxTwo="15"  coef="6.4e-2"/><qTerm  idx="1"  idxOne="5"  idxTwo="17"  coef="-.919"/><qTerm  idx="1"  idxOne="5"  idxTwo="19"  coef="-.9064"/><qTerm  idx="1"  idxOne="6"  idxTwo="8"  coef=".2797"/><qTerm  idx="1"  idxOne="6"  idxTwo="12"  coef="-.6761"/><qTerm  idx="1"  idxOne="6"  idxTwo="16"  coef="-.9433"/><qTerm  idx="1"  idxOne="6"  idxTwo="19"  coef=".4738"/><qTerm  idx="1"  idxOne="7"  idxTwo="8"  coef="-.469"/><qTerm  idx="1"  idxOne="7"  idxTwo="9"  coef="-.6195"/><qTerm  idx="1"  idxOne="7"  idxTwo="10"  coef=".4109"/><qTerm  idx="1"  idxOne="7"  idxTwo="11"  coef=".774"/><qTerm  idx="1"  idxOne="7"  idxTwo="13"  coef="-.6599"/><qTerm  idx="1"  idxOne="7"  idxTwo="14"  coef=".5277"/><qTerm  idx="1"  idxOne="7"  idxTwo="15"  coef="-.207"/><qTerm  idx="1"  idxOne="8"  idxTwo="8"  coef=".7556"/><qTerm  idx="1"  idxOne="8"  idxTwo="9"  coef="-4.44e-2"/><qTerm  idx="1"  idxOne="8"  idxTwo="12"  coef="-.6359"/><qTerm  idx="1"  idxOne="8"  idxTwo="13"  coef=".5783"/><qTerm  idx="1"  idxOne="8"  idxTwo="14"  coef=".4262"/><qTerm  idx="1"  idxOne="8"  idxTwo="15"  coef="-.5666"/><qTerm  idx="1"  idxOne="8"  idxTwo="17"  coef=".4188"/><qTerm  idx="1"  idxOne="8"  idxTwo="19"  coef=".3495"/><qTerm  idx="1"  idxOne="9"  idxTwo="10"  coef="-.6488"/><qTerm  idx="1"  idxOne="9"  idxTwo="11"  coef="-.9492"/><qTerm  idx="1"  idxOne="9"  idxTwo="13"  coef="-.2321"/><qTerm  idx="1"  idxOne="9"  idxTwo="14"  coef="-5.5e-3"/><qTerm  idx="1"  idxOne="9"  idxTwo="15"  coef="-.556"/><qTerm  idx="1"  idxOne="9"  idxTwo="19"  coef=".3175"/><qTerm  idx="1"  idxOne="10"  idxTwo="10"  coef=".392"/><qTerm  idx="1"  idxOne="10"  idxTwo="11"  coef=".7571"/><qTerm  idx="1"  idxOne="10"  idxTwo="13"  coef="-.123"/><qTerm  idx="1"  idxOne="10"  idxTwo="14"  coef="-.9402"/><qTerm  idx="1"  idxOne="10"  idxTwo="15"  coef=".9707"/><qTerm  idx="1"  idxOne="10"  idxTwo="17"  coef="-.9632"/><qTerm  idx="1"  idxOne="10"  idxTwo="18"  coef=".5879"/><qTerm  idx="1"  idxOne="11"  idxTwo="11"  coef=".7006"/><qTerm  idx="1"  idxOne="11"  idxTwo="15"  coef=".3368"/><qTerm  idx="1"  idxOne="11"  idxTwo="18"  coef=".7005"/><qTerm  idx="1"  idxOne="11"  idxTwo="19"  coef="-.9946"/><qTerm  idx="1"  idxOne="12"  idxTwo="12"  coef="-.5453"/><qTerm  idx="1"  idxOne="12"  idxTwo="14"  coef="-.6007"/><qTerm  idx="1"  idxOne="12"  idxTwo="15"  coef=".1658"/><qTerm  idx="1"  idxOne="12"  idxTwo="16"  coef=".5857"/><qTerm  idx="1"  idxOne="12"  idxTwo="17"  coef="-.6648"/><qTerm  idx="1"  idxOne="12"  idxTwo="19"  coef="-.3842"/><qTerm  idx="1"  idxOne="13"  idxTwo="13"  coef="-.8785"/><qTerm  idx="1"  idxOne="13"  idxTwo="14"  coef="-.3002"/><qTerm  idx="1"  idxOne="13"  idxTwo="18"  coef="-.1467"/><qTerm  idx="1"  idxOne="13"  idxTwo="19"  coef=".5581"/><qTerm  idx="1"  idxOne="14"  idxTwo="14"  coef=".255"/><qTerm  idx="1"  idxOne="14"  idxTwo="15"  coef="-.3062"/><qTerm  idx="1"  idxOne="14"  idxTwo="17"  coef="-.1995"/><qTerm  idx="1"  idxOne="15"  idxTwo="19"  coef=".7855"/><qTerm  idx="1"  idxOne="16"  idxTwo="17"  coef="7.6e-2"/><qTerm  idx="1"  idxOne="17"  idxTwo="17"  coef=".9889"/><qTerm  idx="1"  idxOne="17"  idxTwo="18"  coef=".6766"/><qTerm  idx="1"  idxOne="18"  idxTwo="18"  coef=".3158"/><qTerm  idx="1"  idxOne="18"  idxTwo="19"  coef="-.8643"/><qTerm  idx="1"  idxOne="19"  idxTwo="19"  coef="-.8024"/><qTerm  idx="2"  idxOne="0"  idxTwo="0"  coef="-.5794"/><qTerm  idx="2"  idxOne="0"  idxTwo="1"  coef=".227"/><qTerm  idx="2"  idxOne="0"  idxTwo="2"  coef="-.3337"/><qTerm  idx="2"  idxOne="0"  idxTwo="3"  coef="-.3646"/><qTerm  idx="2"  idxOne="0"  idxTwo="4"  coef="-.4327"/><qTerm  idx="2"  idxOne="0"  idxTwo="6"  coef="-.1094"/><qTerm  idx="2"  idxOne="0"  idxTwo="7"  coef=".3825"/><qTerm  idx="2"  idxOne="0"  idxTwo="8"  coef=".5071"/><qTerm  idx="2"  idxOne="0"  idxTwo="9"  coef=".8944"/><qTerm  idx="2"  idxOne="0"  idxTwo="10"  coef="-.3627"/><qTerm  idx="2"  idxOne="0"  idxTwo="11"  coef="6.5e-2"/><qTerm  idx="2"  idxOne="0"  idxTwo="12"  coef=".7137"/><qTerm  idx="2"  idxOne="0"  idxTwo="13"  coef=".5367"/><qTerm  idx="2"  idxOne="0"  idxTwo="14"  coef=".1169"/><qTerm  idx="2"  idxOne="0"  idxTwo="15"  coef=".1142"/><qTerm  idx="2"  idxOne="0"  idxTwo="16"  coef="-.814"/><qTerm  idx="2"  idxOne="0"  idxTwo="17"  coef=".7162"/><qTerm  idx="2"  idxOne="0"  idxTwo="18"  coef=".4038"/><qTerm  idx="2"  idxOne="1"  idxTwo="3"  coef=".3275"/><qTerm  idx="2"  idxOne="1"  idxTwo="6"  coef="-.7578"/><qTerm  idx="2"  idxOne="1"  idxTwo="8"  coef=".2681"/><qTerm  idx="2"  idxOne="1"  idxTwo="10"  coef=".618"/><qTerm  idx="2"  idxOne="1"  idxTwo="11"  coef=".8112"/><qTerm  idx="2"  idxOne="1"  idxTwo="12"  coef=".652"/><qTerm  idx="2"  idxOne="1"  idxTwo="13"  coef=".5574"/><qTerm  idx="2"  idxOne="1"  idxTwo="14"  coef=".1105"/><qTerm  idx="2"  idxOne="1"  idxTwo="15"  coef="-.685"/><qTerm  idx="2"  idxOne="1"  idxTwo="16"  coef=".2517"/><qTerm  idx="2"  idxOne="1"  idxTwo="19"  coef="-.2113"/><qTerm  idx="2"  idxOne="2"  idxTwo="2"  coef="-.9952"/><qTerm  idx="2"  idxOne="2"  idxTwo="8"  coef="-.9702"/><qTerm  idx="2"  idxOne="2"  idxTwo="10"  coef="-.3537"/><qTerm  idx="2"  idxOne="2"  idxTwo="19"  coef=".326"/><qTerm  idx="2"  idxOne="3"  idxTwo="4"  coef="-.2615"/><qTerm  idx="2"  idxOne="3"  idxTwo="5"  coef="-.1564"/><qTerm  idx="2"  idxOne="3"  idxTwo="7"  coef=".9175"/><qTerm  idx="2"  idxOne="3"  idxTwo="8"  coef="-.5903"/><qTerm  idx="2"  idxOne="3"  idxTwo="9"  coef=".9029"/><qTerm  idx="2"  idxOne="3"  idxTwo="10"  coef=".3648"/><qTerm  idx="2"  idxOne="3"  idxTwo="11"  coef="-.9126"/><qTerm  idx="2"  idxOne="3"  idxTwo="13"  coef="-.644"/><qTerm  idx="2"  idxOne="3"  idxTwo="16"  coef=".7789"/><qTerm  idx="2"  idxOne="3"  idxTwo="19"  coef="2.03e-2"/><qTerm  idx="2"  idxOne="4"  idxTwo="4"  coef=".8897"/><qTerm  idx="2"  idxOne="4"  idxTwo="5"  coef="-.5469"/><qTerm  idx="2"  idxOne="4"  idxTwo="10"  coef="-.2008"/><qTerm  idx="2"  idxOne="4"  idxTwo="13"  coef=".6762"/><qTerm  idx="2"  idxOne="4"  idxTwo="16"  coef=".3243"/><qTerm  idx="2"  idxOne="4"  idxTwo="17"  coef="-.6903"/><qTerm  idx="2"  idxOne="4"  idxTwo="18"  coef=".2058"/><qTerm  idx="2"  idxOne="4"  idxTwo="19"  coef=".3876"/><qTerm  idx="2"  idxOne="5"  idxTwo="5"  coef=".3695"/><qTerm  idx="2"  idxOne="5"  idxTwo="7"  coef="3.22e-2"/><qTerm  idx="2"  idxOne="5"  idxTwo="10"  coef="-.502"/><qTerm  idx="2"  idxOne="5"  idxTwo="12"  coef="-.9679"/><qTerm  idx="2"  idxOne="5"  idxTwo="13"  coef=".6939"/><qTerm  idx="2"  idxOne="5"  idxTwo="16"  coef="-.7335"/><qTerm  idx="2"  idxOne="5"  idxTwo="18"  coef="-7.1e-3"/><qTerm  idx="2"  idxOne="6"  idxTwo="6"  coef=".7911"/><qTerm  idx="2"  idxOne="6"  idxTwo="10"  coef="-.8217"/><qTerm  idx="2"  idxOne="6"  idxTwo="14"  coef="-.6734"/><qTerm  idx="2"  idxOne="6"  idxTwo="15"  coef=".5343"/><qTerm  idx="2"  idxOne="6"  idxTwo="16"  coef="-.6164"/><qTerm  idx="2"  idxOne="6"  idxTwo="18"  coef="-6.79e-2"/><qTerm  idx="2"  idxOne="6"  idxTwo="19"  coef="-.3156"/><qTerm  idx="2"  idxOne="7"  idxTwo="7"  coef="-.9986"/><qTerm  idx="2"  idxOne="7"  idxTwo="8"  coef="-2.87e-2"/><qTerm  idx="2"  idxOne="7"  idxTwo="12"  coef=".3193"/><qTerm  idx="2"  idxOne="7"  idxTwo="16"  coef="-.92"/><qTerm  idx="2"  idxOne="7"  idxTwo="17"  coef="-.147"/><qTerm  idx="2"  idxOne="7"  idxTwo="19"  coef="-.9656"/><qTerm  idx="2"  idxOne="8"  idxTwo="9"  coef="-.9044"/><qTerm  idx="2"  idxOne="8"  idxTwo="11"  coef=".9256"/><qTerm  idx="2"  idxOne="8"  idxTwo="13"  coef="-8.49e-2"/><qTerm  idx="2"  idxOne="8"  idxTwo="15"  coef="-.2946"/><qTerm  idx="2"  idxOne="8"  idxTwo="17"  coef=".4543"/><qTerm  idx="2"  idxOne="8"  idxTwo="19"  coef="-.6516"/><qTerm  idx="2"  idxOne="9"  idxTwo="12"  coef="-.2951"/><qTerm  idx="2"  idxOne="9"  idxTwo="13"  coef="-.5713"/><qTerm  idx="2"  idxOne="9"  idxTwo="14"  coef=".9107"/><qTerm  idx="2"  idxOne="9"  idxTwo="15"  coef=".5607"/><qTerm  idx="2"  idxOne="9"  idxTwo="16"  coef=".5813"/><qTerm  idx="2"  idxOne="9"  idxTwo="19"  coef=".1879"/><qTerm  idx="2"  idxOne="10"  idxTwo="12"  coef="8.79e-2"/><qTerm  idx="2"  idxOne="10"  idxTwo="14"  coef="-.1947"/><qTerm  idx="2"  idxOne="10"  idxTwo="19"  coef="-.5199"/><qTerm  idx="2"  idxOne="11"  idxTwo="12"  coef="-.661"/><qTerm  idx="2"  idxOne="11"  idxTwo="15"  coef=".7548"/><qTerm  idx="2"  idxOne="12"  idxTwo="14"  coef="-.8094"/><qTerm  idx="2"  idxOne="12"  idxTwo="17"  coef="-.8729"/><qTerm  idx="2"  idxOne="13"  idxTwo="13"  coef=".703"/><qTerm  idx="2"  idxOne="13"  idxTwo="14"  coef="-.6193"/><qTerm  idx="2"  idxOne="13"  idxTwo="16"  coef=".863"/><qTerm  idx="2"  idxOne="13"  idxTwo="18"  coef=".3731"/><qTerm  idx="2"  idxOne="13"  idxTwo="19"  coef=".975"/><qTerm  idx="2"  idxOne="14"  idxTwo="16"  coef="-.9151"/><qTerm  idx="2"  idxOne="14"  idxTwo="17"  coef="-.1013"/><qTerm  idx="2"  idxOne="14"  idxTwo="19"  coef="-.7563"/><qTerm  idx="2"  idxOne="15"  idxTwo="15"  coef="-.9394"/><qTerm  idx="2"  idxOne="15"  idxTwo="16"  coef="-.1056"/><qTerm  idx="2"  idxOne="15"  idxTwo="18"  coef=".5528"/><qTerm  idx="2"  idxOne="15"  idxTwo="19"  coef="-.4469"/><qTerm  idx="2"  idxOne="16"  idxTwo="16"  coef="-.6919"/><qTerm  idx="2"  idxOne="16"  idxTwo="18"  coef=".6454"/><qTerm  idx="2"  idxOne="16"  idxTwo="19"  coef="-.7436"/><qTerm  idx="2"  idxOne="17"  idxTwo="17"  coef="-.4406"/><qTerm  idx="2"  idxOne="17"  idxTwo="18"  coef="-.6553"/><qTerm  idx="2"  idxOne="17"  idxTwo="19"  coef="8.15e-2"/><qTerm  idx="2"  idxOne="18"  idxTwo="19"  coef="-.2592"/><qTerm  idx="2"  idxOne="19"  idxTwo="19"  coef="-.3449"/><qTerm  idx="3"  idxOne="0"  idxTwo="0"  coef="-.4473"/><qTerm  idx="3"  idxOne="0"  idxTwo="1"  coef=".5227"/><qTerm  idx="3"  idxOne="0"  idxTwo="2"  coef="-.1544"/><qTerm  idx="3"  idxOne="0"  idxTwo="6"  coef=".1788"/><qTerm  idx="3"  idxOne="0"  idxTwo="7"  coef="-.8851"/><qTerm  idx="3"  idxOne="0"  idxTwo="8"  coef="-.397"/><qTerm  idx="3"  idxOne="0"  idxTwo="10"  coef="-.8556"/><qTerm  idx="3"  idxOne="0"  idxTwo="11"  coef=".5239"/><qTerm  idx="3"  idxOne="0"  idxTwo="12"  coef="3.08e-2"/><qTerm  idx="3"  idxOne="0"  idxTwo="15"  coef="-.7734"/><qTerm  idx="3"  idxOne="0"  idxTwo="16"  coef=".3039"/><qTerm  idx="3"  idxOne="0"  idxTwo="17"  coef="-.7162"/><qTerm  idx="3"  idxOne="0"  idxTwo="19"  coef=".3885"/><qTerm  idx="3"  idxOne="1"  idxTwo="1"  coef="-.999"/><qTerm  idx="3"  idxOne="1"  idxTwo="2"  coef="-.1183"/><qTerm  idx="3"  idxOne="1"  idxTwo="10"  coef="-.1821"/><qTerm  idx="3"  idxOne="1"  idxTwo="12"  coef=".6174"/><qTerm  idx="3"  idxOne="1"  idxTwo="14"  coef="-.854"/><qTerm  idx="3"  idxOne="1"  idxTwo="15"  coef=".5544"/><qTerm  idx="3"  idxOne="1"  idxTwo="19"  coef=".232"/><qTerm  idx="3"  idxOne="2"  idxTwo="2"  coef="-.6641"/><qTerm  idx="3"  idxOne="2"  idxTwo="4"  coef="-.3447"/><qTerm  idx="3"  idxOne="2"  idxTwo="5"  coef=".6963"/><qTerm  idx="3"  idxOne="2"  idxTwo="7"  coef=".1228"/><qTerm  idx="3"  idxOne="2"  idxTwo="10"  coef=".1779"/><qTerm  idx="3"  idxOne="2"  idxTwo="11"  coef=".973"/><qTerm  idx="3"  idxOne="2"  idxTwo="12"  coef=".1374"/><qTerm  idx="3"  idxOne="2"  idxTwo="16"  coef="-.5653"/><qTerm  idx="3"  idxOne="3"  idxTwo="3"  coef=".3235"/><qTerm  idx="3"  idxOne="3"  idxTwo="4"  coef="-.7351"/><qTerm  idx="3"  idxOne="3"  idxTwo="8"  coef=".1866"/><qTerm  idx="3"  idxOne="3"  idxTwo="11"  coef="-.1166"/><qTerm  idx="3"  idxOne="3"  idxTwo="12"  coef=".6616"/><qTerm  idx="3"  idxOne="3"  idxTwo="13"  coef=".3928"/><qTerm  idx="3"  idxOne="3"  idxTwo="14"  coef=".4047"/><qTerm  idx="3"  idxOne="3"  idxTwo="15"  coef="-.492"/><qTerm  idx="3"  idxOne="3"  idxTwo="19"  coef="2.33e-2"/><qTerm  idx="3"  idxOne="4"  idxTwo="4"  coef="-8.39e-2"/><qTerm  idx="3"  idxOne="4"  idxTwo="6"  coef=".9802"/><qTerm  idx="3"  idxOne="4"  idxTwo="7"  coef=".2466"/><qTerm  idx="3"  idxOne="4"  idxTwo="11"  coef="1.86e-2"/><qTerm  idx="3"  idxOne="4"  idxTwo="12"  coef=".761"/><qTerm  idx="3"  idxOne="4"  idxTwo="16"  coef=".1837"/><qTerm  idx="3"  idxOne="4"  idxTwo="18"  coef=".6049"/><qTerm  idx="3"  idxOne="5"  idxTwo="5"  coef="-.782"/><qTerm  idx="3"  idxOne="5"  idxTwo="6"  coef=".8772"/><qTerm  idx="3"  idxOne="5"  idxTwo="7"  coef=".9354"/><qTerm  idx="3"  idxOne="5"  idxTwo="9"  coef=".5135"/><qTerm  idx="3"  idxOne="5"  idxTwo="10"  coef=".5527"/><qTerm  idx="3"  idxOne="5"  idxTwo="11"  coef=".5089"/><qTerm  idx="3"  idxOne="5"  idxTwo="12"  coef="-.9858"/><qTerm  idx="3"  idxOne="5"  idxTwo="14"  coef=".7245"/><qTerm  idx="3"  idxOne="5"  idxTwo="15"  coef="-.7463"/><qTerm  idx="3"  idxOne="5"  idxTwo="18"  coef="-.5182"/><qTerm  idx="3"  idxOne="5"  idxTwo="19"  coef="-.6181"/><qTerm  idx="3"  idxOne="6"  idxTwo="6"  coef="-.815"/><qTerm  idx="3"  idxOne="6"  idxTwo="7"  coef="-.1105"/><qTerm  idx="3"  idxOne="6"  idxTwo="8"  coef="-.6992"/><qTerm  idx="3"  idxOne="6"  idxTwo="9"  coef=".2491"/><qTerm  idx="3"  idxOne="6"  idxTwo="11"  coef=".6866"/><qTerm  idx="3"  idxOne="6"  idxTwo="14"  coef="-.7184"/><qTerm  idx="3"  idxOne="6"  idxTwo="15"  coef=".7077"/><qTerm  idx="3"  idxOne="6"  idxTwo="18"  coef="-.8608"/><qTerm  idx="3"  idxOne="6"  idxTwo="19"  coef="-.851"/><qTerm  idx="3"  idxOne="7"  idxTwo="7"  coef=".6374"/><qTerm  idx="3"  idxOne="7"  idxTwo="9"  coef="-3.65e-2"/><qTerm  idx="3"  idxOne="7"  idxTwo="12"  coef=".7884"/><qTerm  idx="3"  idxOne="7"  idxTwo="14"  coef=".6555"/><qTerm  idx="3"  idxOne="7"  idxTwo="15"  coef="-.3754"/><qTerm  idx="3"  idxOne="7"  idxTwo="16"  coef="-7.38e-2"/><qTerm  idx="3"  idxOne="7"  idxTwo="18"  coef=".9879"/><qTerm  idx="3"  idxOne="8"  idxTwo="8"  coef="1.35e-2"/><qTerm  idx="3"  idxOne="8"  idxTwo="10"  coef="-.3498"/><qTerm  idx="3"  idxOne="8"  idxTwo="11"  coef="-9.71e-2"/><qTerm  idx="3"  idxOne="8"  idxTwo="14"  coef=".904"/><qTerm  idx="3"  idxOne="8"  idxTwo="15"  coef="-.2376"/><qTerm  idx="3"  idxOne="8"  idxTwo="16"  coef=".2933"/><qTerm  idx="3"  idxOne="8"  idxTwo="19"  coef="-.9793"/><qTerm  idx="3"  idxOne="9"  idxTwo="9"  coef="-.2463"/><qTerm  idx="3"  idxOne="9"  idxTwo="10"  coef=".4602"/><qTerm  idx="3"  idxOne="9"  idxTwo="11"  coef=".2682"/><qTerm  idx="3"  idxOne="9"  idxTwo="14"  coef="-.5987"/><qTerm  idx="3"  idxOne="9"  idxTwo="15"  coef=".5991"/><qTerm  idx="3"  idxOne="9"  idxTwo="17"  coef="-.2997"/><qTerm  idx="3"  idxOne="9"  idxTwo="19"  coef=".4424"/><qTerm  idx="3"  idxOne="10"  idxTwo="14"  coef="-.2551"/><qTerm  idx="3"  idxOne="11"  idxTwo="13"  coef="-.4591"/><qTerm  idx="3"  idxOne="11"  idxTwo="14"  coef=".191"/><qTerm  idx="3"  idxOne="11"  idxTwo="15"  coef=".7592"/><qTerm  idx="3"  idxOne="11"  idxTwo="18"  coef="-.4934"/><qTerm  idx="3"  idxOne="12"  idxTwo="12"  coef="-.5187"/><qTerm  idx="3"  idxOne="12"  idxTwo="13"  coef="-.1522"/><qTerm  idx="3"  idxOne="12"  idxTwo="15"  coef="-.7995"/><qTerm  idx="3"  idxOne="12"  idxTwo="17"  coef=".2015"/><qTerm  idx="3"  idxOne="12"  idxTwo="18"  coef=".7515"/><qTerm  idx="3"  idxOne="12"  idxTwo="19"  coef="-.3003"/><qTerm  idx="3"  idxOne="13"  idxTwo="13"  coef="-5.2e-3"/><qTerm  idx="3"  idxOne="13"  idxTwo="15"  coef="-.2116"/><qTerm  idx="3"  idxOne="13"  idxTwo="19"  coef="-6.9e-2"/><qTerm  idx="3"  idxOne="14"  idxTwo="14"  coef=".4125"/><qTerm  idx="3"  idxOne="14"  idxTwo="15"  coef=".1911"/><qTerm  idx="3"  idxOne="14"  idxTwo="19"  coef=".141"/><qTerm  idx="3"  idxOne="15"  idxTwo="19"  coef="-.4838"/><qTerm  idx="3"  idxOne="16"  idxTwo="16"  coef="4.28e-2"/><qTerm  idx="3"  idxOne="16"  idxTwo="18"  coef="-.3545"/><qTerm  idx="3"  idxOne="16"  idxTwo="19"  coef="-.836"/><qTerm  idx="3"  idxOne="17"  idxTwo="17"  coef=".9044"/><qTerm  idx="3"  idxOne="18"  idxTwo="18"  coef=".9537"/><qTerm  idx="3"  idxOne="18"  idxTwo="19"  coef="8.03e-2"/><qTerm  idx="3"  idxOne="19"  idxTwo="19"  coef="-.4248"/></quadraticCoefficients></instanceData></osil>
